36 500
11 129
3 162
7 155
4 116
7 179
6 189
6 166
7 155
10 175
10 140
5 140
4 179
9 149
9 139
4 189
7 178
2 116
4 140
2 160
10 129
8 166
11 162
9 116
6 183
9 140
11 175
2 179
2 179
2 183
5 166
10 160
5 149
9 178
7 139
5 116
2 166
